
;this file is automatically generated: Mon Oct 04 22:33:13 IST 2021

;declarations generated

(declare-fun oclExcludes ( Int Int) Bool)
(declare-fun Cardinality ( Int) Int)
(declare-fun type_3d0d6f16_9049_43b2_b767_6efa60c5894b_Class13 ( Int) Bool)
(declare-fun type_3d0d6f16_9049_43b2_b767_6efa60c5894b_Class14 ( Int) Bool)
(declare-fun type_3d0d6f16_9049_43b2_b767_6efa60c5894b_Class15 ( Int) Bool)
(declare-fun type_3d0d6f16_9049_43b2_b767_6efa60c5894b_Class16 ( Int) Bool)
(declare-fun type_3d0d6f16_9049_43b2_b767_6efa60c5894b_Class10 ( Int) Bool)
(declare-fun type_3d0d6f16_9049_43b2_b767_6efa60c5894b_Class11 ( Int) Bool)
(declare-fun type_3d0d6f16_9049_43b2_b767_6efa60c5894b_Class12 ( Int) Bool)
(declare-fun type_3d0d6f16_9049_43b2_b767_6efa60c5894b_Class24 ( Int) Bool)
(declare-fun type_3d0d6f16_9049_43b2_b767_6efa60c5894b_Class25 ( Int) Bool)
(declare-fun type_3d0d6f16_9049_43b2_b767_6efa60c5894b_Class26 ( Int) Bool)
(declare-fun type_3d0d6f16_9049_43b2_b767_6efa60c5894b_Class27 ( Int) Bool)
(declare-fun type_3d0d6f16_9049_43b2_b767_6efa60c5894b_Class20 ( Int) Bool)
(declare-fun type_3d0d6f16_9049_43b2_b767_6efa60c5894b_Class21 ( Int) Bool)
(declare-fun type_3d0d6f16_9049_43b2_b767_6efa60c5894b_Class22 ( Int) Bool)
(declare-fun type_3d0d6f16_9049_43b2_b767_6efa60c5894b_Class23 ( Int) Bool)
(declare-fun type_3d0d6f16_9049_43b2_b767_6efa60c5894b_Class17 ( Int) Bool)
(declare-fun type_3d0d6f16_9049_43b2_b767_6efa60c5894b_Class18 ( Int) Bool)
(declare-fun type_3d0d6f16_9049_43b2_b767_6efa60c5894b_Class19 ( Int) Bool)
(declare-fun type_3d0d6f16_9049_43b2_b767_6efa60c5894b_Class35 ( Int) Bool)
(declare-fun type_3d0d6f16_9049_43b2_b767_6efa60c5894b_Class36 ( Int) Bool)
(declare-fun type_3d0d6f16_9049_43b2_b767_6efa60c5894b_Class37 ( Int) Bool)
(declare-fun type_3d0d6f16_9049_43b2_b767_6efa60c5894b_Class38 ( Int) Bool)
(declare-fun type_3d0d6f16_9049_43b2_b767_6efa60c5894b_Class31 ( Int) Bool)
(declare-fun type_3d0d6f16_9049_43b2_b767_6efa60c5894b_Class32 ( Int) Bool)
(declare-fun type_3d0d6f16_9049_43b2_b767_6efa60c5894b_Class33 ( Int) Bool)
(declare-fun type_3d0d6f16_9049_43b2_b767_6efa60c5894b_Class34 ( Int) Bool)
(declare-fun type_3d0d6f16_9049_43b2_b767_6efa60c5894b_Class30 ( Int) Bool)
(declare-fun type_3d0d6f16_9049_43b2_b767_6efa60c5894b_Class28 ( Int) Bool)
(declare-fun type_3d0d6f16_9049_43b2_b767_6efa60c5894b_Class29 ( Int) Bool)
(declare-fun type_3d0d6f16_9049_43b2_b767_6efa60c5894b_Class46 ( Int) Bool)
(declare-fun type_3d0d6f16_9049_43b2_b767_6efa60c5894b_Class47 ( Int) Bool)
(declare-fun type_3d0d6f16_9049_43b2_b767_6efa60c5894b_Class48 ( Int) Bool)
(declare-fun type_3d0d6f16_9049_43b2_b767_6efa60c5894b_Class49 ( Int) Bool)
(declare-fun type_3d0d6f16_9049_43b2_b767_6efa60c5894b_Class42 ( Int) Bool)
(declare-fun type_3d0d6f16_9049_43b2_b767_6efa60c5894b_Class43 ( Int) Bool)
(declare-fun type_3d0d6f16_9049_43b2_b767_6efa60c5894b_Class44 ( Int) Bool)
(declare-fun type_3d0d6f16_9049_43b2_b767_6efa60c5894b_Class45 ( Int) Bool)
(declare-fun type_3d0d6f16_9049_43b2_b767_6efa60c5894b_Class40 ( Int) Bool)
(declare-fun type_3d0d6f16_9049_43b2_b767_6efa60c5894b_Class41 ( Int) Bool)
(declare-fun type_3d0d6f16_9049_43b2_b767_6efa60c5894b_Class39 ( Int) Bool)
(declare-fun oclSelect ( Int Bool) Int)
(declare-fun type_3d0d6f16_9049_43b2_b767_6efa60c5894b_Class53 ( Int) Bool)
(declare-fun type_3d0d6f16_9049_43b2_b767_6efa60c5894b_Class54 ( Int) Bool)
(declare-fun type_3d0d6f16_9049_43b2_b767_6efa60c5894b_Class55 ( Int) Bool)
(declare-fun type_3d0d6f16_9049_43b2_b767_6efa60c5894b_Class50 ( Int) Bool)
(declare-fun type_3d0d6f16_9049_43b2_b767_6efa60c5894b_Class51 ( Int) Bool)
(declare-fun type_3d0d6f16_9049_43b2_b767_6efa60c5894b_Class52 ( Int) Bool)
(declare-fun type_3d0d6f16_9049_43b2_b767_6efa60c5894b_Class1 ( Int) Bool)
(declare-fun type_3d0d6f16_9049_43b2_b767_6efa60c5894b_Class0 ( Int) Bool)
(declare-fun type_3d0d6f16_9049_43b2_b767_6efa60c5894b_Class9 ( Int) Bool)
(declare-fun type_3d0d6f16_9049_43b2_b767_6efa60c5894b_Class8 ( Int) Bool)
(declare-fun type_3d0d6f16_9049_43b2_b767_6efa60c5894b_Class7 ( Int) Bool)
(declare-fun type_3d0d6f16_9049_43b2_b767_6efa60c5894b_Class6 ( Int) Bool)
(declare-fun type_3d0d6f16_9049_43b2_b767_6efa60c5894b_Class5 ( Int) Bool)
(declare-fun type_3d0d6f16_9049_43b2_b767_6efa60c5894b_Class4 ( Int) Bool)
(declare-fun type_3d0d6f16_9049_43b2_b767_6efa60c5894b_Class3 ( Int) Bool)
(declare-fun Enum0 ( Int) Int)
(declare-fun type_3d0d6f16_9049_43b2_b767_6efa60c5894b_Class2 ( Int) Bool)
(declare-fun Enum1 ( Int) Int)
(declare-fun Enum2 ( Int) Int)
(declare-fun container_ ( Int) Int)
(declare-fun obj_54dc4e05_626a_4918_ae8a_523ae1115190 ( Int) Int)
(declare-fun oclIncludes ( Int Int) Bool)
(declare-fun ObjAt ( Int Int) Int)

;formula(s) generated
(assert (forall ((p Int)) (=> ( type_3d0d6f16_9049_43b2_b767_6efa60c5894b_Class48 p )  (and (>= ( Enum2 ( obj_54dc4e05_626a_4918_ae8a_523ae1115190 p )  )  0) (<= ( Enum2 ( obj_54dc4e05_626a_4918_ae8a_523ae1115190 p )  )  6)))))
(assert (! (forall ((c1 Int)) (=> (and (and (and (and (and (and (and (and (and ( type_3d0d6f16_9049_43b2_b767_6efa60c5894b_Class48 c1 )  ( type_3d0d6f16_9049_43b2_b767_6efa60c5894b_Class45 c1 ) ) ( type_3d0d6f16_9049_43b2_b767_6efa60c5894b_Class12 c1 ) ) ( type_3d0d6f16_9049_43b2_b767_6efa60c5894b_Class55 c1 ) ) ( type_3d0d6f16_9049_43b2_b767_6efa60c5894b_Class33 c1 ) ) ( type_3d0d6f16_9049_43b2_b767_6efa60c5894b_Class22 c1 ) ) ( type_3d0d6f16_9049_43b2_b767_6efa60c5894b_Class29 c1 ) ) ( type_3d0d6f16_9049_43b2_b767_6efa60c5894b_Class39 c1 ) ) ( type_3d0d6f16_9049_43b2_b767_6efa60c5894b_Class50 c1 ) ) ( type_3d0d6f16_9049_43b2_b767_6efa60c5894b_Class41 c1 ) ) (= ( Enum2 ( obj_54dc4e05_626a_4918_ae8a_523ae1115190 c1 )  )  2))):named l0))
(assert (! (exists ((o Int)) ( type_3d0d6f16_9049_43b2_b767_6efa60c5894b_Class0 ( obj_54dc4e05_626a_4918_ae8a_523ae1115190 o )  ) ):named c0))
(assert (! (exists ((o Int)) (and (and (and (and (and ( type_3d0d6f16_9049_43b2_b767_6efa60c5894b_Class1 ( obj_54dc4e05_626a_4918_ae8a_523ae1115190 o )  )  ( type_3d0d6f16_9049_43b2_b767_6efa60c5894b_Class45 ( obj_54dc4e05_626a_4918_ae8a_523ae1115190 o )  ) ) ( type_3d0d6f16_9049_43b2_b767_6efa60c5894b_Class12 ( obj_54dc4e05_626a_4918_ae8a_523ae1115190 o )  ) ) ( type_3d0d6f16_9049_43b2_b767_6efa60c5894b_Class33 ( obj_54dc4e05_626a_4918_ae8a_523ae1115190 o )  ) ) ( type_3d0d6f16_9049_43b2_b767_6efa60c5894b_Class22 ( obj_54dc4e05_626a_4918_ae8a_523ae1115190 o )  ) ) ( type_3d0d6f16_9049_43b2_b767_6efa60c5894b_Class39 ( obj_54dc4e05_626a_4918_ae8a_523ae1115190 o )  ) )):named c1))
(assert (! (exists ((o Int)) (and (and (and (and (and (and (and (and (and ( type_3d0d6f16_9049_43b2_b767_6efa60c5894b_Class10 ( obj_54dc4e05_626a_4918_ae8a_523ae1115190 o )  )  ( type_3d0d6f16_9049_43b2_b767_6efa60c5894b_Class45 ( obj_54dc4e05_626a_4918_ae8a_523ae1115190 o )  ) ) ( type_3d0d6f16_9049_43b2_b767_6efa60c5894b_Class12 ( obj_54dc4e05_626a_4918_ae8a_523ae1115190 o )  ) ) ( type_3d0d6f16_9049_43b2_b767_6efa60c5894b_Class55 ( obj_54dc4e05_626a_4918_ae8a_523ae1115190 o )  ) ) ( type_3d0d6f16_9049_43b2_b767_6efa60c5894b_Class33 ( obj_54dc4e05_626a_4918_ae8a_523ae1115190 o )  ) ) ( type_3d0d6f16_9049_43b2_b767_6efa60c5894b_Class22 ( obj_54dc4e05_626a_4918_ae8a_523ae1115190 o )  ) ) ( type_3d0d6f16_9049_43b2_b767_6efa60c5894b_Class29 ( obj_54dc4e05_626a_4918_ae8a_523ae1115190 o )  ) ) ( type_3d0d6f16_9049_43b2_b767_6efa60c5894b_Class39 ( obj_54dc4e05_626a_4918_ae8a_523ae1115190 o )  ) ) ( type_3d0d6f16_9049_43b2_b767_6efa60c5894b_Class50 ( obj_54dc4e05_626a_4918_ae8a_523ae1115190 o )  ) ) ( type_3d0d6f16_9049_43b2_b767_6efa60c5894b_Class41 ( obj_54dc4e05_626a_4918_ae8a_523ae1115190 o )  ) )):named c2))
(assert (! (exists ((o Int)) ( type_3d0d6f16_9049_43b2_b767_6efa60c5894b_Class11 ( obj_54dc4e05_626a_4918_ae8a_523ae1115190 o )  ) ):named c3))
(assert (! (exists ((o Int)) (and (and (and ( type_3d0d6f16_9049_43b2_b767_6efa60c5894b_Class12 ( obj_54dc4e05_626a_4918_ae8a_523ae1115190 o )  )  ( type_3d0d6f16_9049_43b2_b767_6efa60c5894b_Class33 ( obj_54dc4e05_626a_4918_ae8a_523ae1115190 o )  ) ) ( type_3d0d6f16_9049_43b2_b767_6efa60c5894b_Class22 ( obj_54dc4e05_626a_4918_ae8a_523ae1115190 o )  ) ) ( type_3d0d6f16_9049_43b2_b767_6efa60c5894b_Class39 ( obj_54dc4e05_626a_4918_ae8a_523ae1115190 o )  ) )):named c4))
(assert (! (exists ((o Int)) (and (and (and (and (and (and (and (and (and ( type_3d0d6f16_9049_43b2_b767_6efa60c5894b_Class13 ( obj_54dc4e05_626a_4918_ae8a_523ae1115190 o )  )  ( type_3d0d6f16_9049_43b2_b767_6efa60c5894b_Class45 ( obj_54dc4e05_626a_4918_ae8a_523ae1115190 o )  ) ) ( type_3d0d6f16_9049_43b2_b767_6efa60c5894b_Class12 ( obj_54dc4e05_626a_4918_ae8a_523ae1115190 o )  ) ) ( type_3d0d6f16_9049_43b2_b767_6efa60c5894b_Class55 ( obj_54dc4e05_626a_4918_ae8a_523ae1115190 o )  ) ) ( type_3d0d6f16_9049_43b2_b767_6efa60c5894b_Class33 ( obj_54dc4e05_626a_4918_ae8a_523ae1115190 o )  ) ) ( type_3d0d6f16_9049_43b2_b767_6efa60c5894b_Class22 ( obj_54dc4e05_626a_4918_ae8a_523ae1115190 o )  ) ) ( type_3d0d6f16_9049_43b2_b767_6efa60c5894b_Class29 ( obj_54dc4e05_626a_4918_ae8a_523ae1115190 o )  ) ) ( type_3d0d6f16_9049_43b2_b767_6efa60c5894b_Class39 ( obj_54dc4e05_626a_4918_ae8a_523ae1115190 o )  ) ) ( type_3d0d6f16_9049_43b2_b767_6efa60c5894b_Class50 ( obj_54dc4e05_626a_4918_ae8a_523ae1115190 o )  ) ) ( type_3d0d6f16_9049_43b2_b767_6efa60c5894b_Class41 ( obj_54dc4e05_626a_4918_ae8a_523ae1115190 o )  ) )):named c5))
(assert (! (exists ((o Int)) (and (and (and (and (and (and (and (and (and ( type_3d0d6f16_9049_43b2_b767_6efa60c5894b_Class14 ( obj_54dc4e05_626a_4918_ae8a_523ae1115190 o )  )  ( type_3d0d6f16_9049_43b2_b767_6efa60c5894b_Class45 ( obj_54dc4e05_626a_4918_ae8a_523ae1115190 o )  ) ) ( type_3d0d6f16_9049_43b2_b767_6efa60c5894b_Class12 ( obj_54dc4e05_626a_4918_ae8a_523ae1115190 o )  ) ) ( type_3d0d6f16_9049_43b2_b767_6efa60c5894b_Class55 ( obj_54dc4e05_626a_4918_ae8a_523ae1115190 o )  ) ) ( type_3d0d6f16_9049_43b2_b767_6efa60c5894b_Class33 ( obj_54dc4e05_626a_4918_ae8a_523ae1115190 o )  ) ) ( type_3d0d6f16_9049_43b2_b767_6efa60c5894b_Class22 ( obj_54dc4e05_626a_4918_ae8a_523ae1115190 o )  ) ) ( type_3d0d6f16_9049_43b2_b767_6efa60c5894b_Class29 ( obj_54dc4e05_626a_4918_ae8a_523ae1115190 o )  ) ) ( type_3d0d6f16_9049_43b2_b767_6efa60c5894b_Class39 ( obj_54dc4e05_626a_4918_ae8a_523ae1115190 o )  ) ) ( type_3d0d6f16_9049_43b2_b767_6efa60c5894b_Class50 ( obj_54dc4e05_626a_4918_ae8a_523ae1115190 o )  ) ) ( type_3d0d6f16_9049_43b2_b767_6efa60c5894b_Class41 ( obj_54dc4e05_626a_4918_ae8a_523ae1115190 o )  ) )):named c6))
(assert (! (exists ((o Int)) ( type_3d0d6f16_9049_43b2_b767_6efa60c5894b_Class15 ( obj_54dc4e05_626a_4918_ae8a_523ae1115190 o )  ) ):named c7))
(assert (! (exists ((o Int)) (and (and (and (and (and ( type_3d0d6f16_9049_43b2_b767_6efa60c5894b_Class16 ( obj_54dc4e05_626a_4918_ae8a_523ae1115190 o )  )  ( type_3d0d6f16_9049_43b2_b767_6efa60c5894b_Class45 ( obj_54dc4e05_626a_4918_ae8a_523ae1115190 o )  ) ) ( type_3d0d6f16_9049_43b2_b767_6efa60c5894b_Class12 ( obj_54dc4e05_626a_4918_ae8a_523ae1115190 o )  ) ) ( type_3d0d6f16_9049_43b2_b767_6efa60c5894b_Class33 ( obj_54dc4e05_626a_4918_ae8a_523ae1115190 o )  ) ) ( type_3d0d6f16_9049_43b2_b767_6efa60c5894b_Class22 ( obj_54dc4e05_626a_4918_ae8a_523ae1115190 o )  ) ) ( type_3d0d6f16_9049_43b2_b767_6efa60c5894b_Class39 ( obj_54dc4e05_626a_4918_ae8a_523ae1115190 o )  ) )):named c8))
(assert (! (exists ((o Int)) ( type_3d0d6f16_9049_43b2_b767_6efa60c5894b_Class17 ( obj_54dc4e05_626a_4918_ae8a_523ae1115190 o )  ) ):named c9))
(assert (! (exists ((o Int)) (and (and (and ( type_3d0d6f16_9049_43b2_b767_6efa60c5894b_Class18 ( obj_54dc4e05_626a_4918_ae8a_523ae1115190 o )  )  ( type_3d0d6f16_9049_43b2_b767_6efa60c5894b_Class25 ( obj_54dc4e05_626a_4918_ae8a_523ae1115190 o )  ) ) ( type_3d0d6f16_9049_43b2_b767_6efa60c5894b_Class24 ( obj_54dc4e05_626a_4918_ae8a_523ae1115190 o )  ) ) ( type_3d0d6f16_9049_43b2_b767_6efa60c5894b_Class39 ( obj_54dc4e05_626a_4918_ae8a_523ae1115190 o )  ) )):named c10))
(assert (! (exists ((o Int)) (and (and (and (and (and (and (and (and (and ( type_3d0d6f16_9049_43b2_b767_6efa60c5894b_Class19 ( obj_54dc4e05_626a_4918_ae8a_523ae1115190 o )  )  ( type_3d0d6f16_9049_43b2_b767_6efa60c5894b_Class45 ( obj_54dc4e05_626a_4918_ae8a_523ae1115190 o )  ) ) ( type_3d0d6f16_9049_43b2_b767_6efa60c5894b_Class12 ( obj_54dc4e05_626a_4918_ae8a_523ae1115190 o )  ) ) ( type_3d0d6f16_9049_43b2_b767_6efa60c5894b_Class55 ( obj_54dc4e05_626a_4918_ae8a_523ae1115190 o )  ) ) ( type_3d0d6f16_9049_43b2_b767_6efa60c5894b_Class33 ( obj_54dc4e05_626a_4918_ae8a_523ae1115190 o )  ) ) ( type_3d0d6f16_9049_43b2_b767_6efa60c5894b_Class22 ( obj_54dc4e05_626a_4918_ae8a_523ae1115190 o )  ) ) ( type_3d0d6f16_9049_43b2_b767_6efa60c5894b_Class29 ( obj_54dc4e05_626a_4918_ae8a_523ae1115190 o )  ) ) ( type_3d0d6f16_9049_43b2_b767_6efa60c5894b_Class39 ( obj_54dc4e05_626a_4918_ae8a_523ae1115190 o )  ) ) ( type_3d0d6f16_9049_43b2_b767_6efa60c5894b_Class50 ( obj_54dc4e05_626a_4918_ae8a_523ae1115190 o )  ) ) ( type_3d0d6f16_9049_43b2_b767_6efa60c5894b_Class41 ( obj_54dc4e05_626a_4918_ae8a_523ae1115190 o )  ) )):named c11))
(assert (! (exists ((o Int)) ( type_3d0d6f16_9049_43b2_b767_6efa60c5894b_Class2 ( obj_54dc4e05_626a_4918_ae8a_523ae1115190 o )  ) ):named c12))
(assert (! (exists ((o Int)) ( type_3d0d6f16_9049_43b2_b767_6efa60c5894b_Class20 ( obj_54dc4e05_626a_4918_ae8a_523ae1115190 o )  ) ):named c13))
(assert (! (exists ((o Int)) (and (and (and (and (and (and (and (and (and ( type_3d0d6f16_9049_43b2_b767_6efa60c5894b_Class21 ( obj_54dc4e05_626a_4918_ae8a_523ae1115190 o )  )  ( type_3d0d6f16_9049_43b2_b767_6efa60c5894b_Class45 ( obj_54dc4e05_626a_4918_ae8a_523ae1115190 o )  ) ) ( type_3d0d6f16_9049_43b2_b767_6efa60c5894b_Class12 ( obj_54dc4e05_626a_4918_ae8a_523ae1115190 o )  ) ) ( type_3d0d6f16_9049_43b2_b767_6efa60c5894b_Class33 ( obj_54dc4e05_626a_4918_ae8a_523ae1115190 o )  ) ) ( type_3d0d6f16_9049_43b2_b767_6efa60c5894b_Class22 ( obj_54dc4e05_626a_4918_ae8a_523ae1115190 o )  ) ) ( type_3d0d6f16_9049_43b2_b767_6efa60c5894b_Class16 ( obj_54dc4e05_626a_4918_ae8a_523ae1115190 o )  ) ) ( type_3d0d6f16_9049_43b2_b767_6efa60c5894b_Class29 ( obj_54dc4e05_626a_4918_ae8a_523ae1115190 o )  ) ) ( type_3d0d6f16_9049_43b2_b767_6efa60c5894b_Class39 ( obj_54dc4e05_626a_4918_ae8a_523ae1115190 o )  ) ) ( type_3d0d6f16_9049_43b2_b767_6efa60c5894b_Class41 ( obj_54dc4e05_626a_4918_ae8a_523ae1115190 o )  ) ) ( type_3d0d6f16_9049_43b2_b767_6efa60c5894b_Class51 ( obj_54dc4e05_626a_4918_ae8a_523ae1115190 o )  ) )):named c14))
(assert (! (exists ((o Int)) (and ( type_3d0d6f16_9049_43b2_b767_6efa60c5894b_Class22 ( obj_54dc4e05_626a_4918_ae8a_523ae1115190 o )  )  ( type_3d0d6f16_9049_43b2_b767_6efa60c5894b_Class39 ( obj_54dc4e05_626a_4918_ae8a_523ae1115190 o )  ) )):named c15))
(assert (! (exists ((o Int)) (and (and (and (and ( type_3d0d6f16_9049_43b2_b767_6efa60c5894b_Class23 ( obj_54dc4e05_626a_4918_ae8a_523ae1115190 o )  )  ( type_3d0d6f16_9049_43b2_b767_6efa60c5894b_Class25 ( obj_54dc4e05_626a_4918_ae8a_523ae1115190 o )  ) ) ( type_3d0d6f16_9049_43b2_b767_6efa60c5894b_Class24 ( obj_54dc4e05_626a_4918_ae8a_523ae1115190 o )  ) ) ( type_3d0d6f16_9049_43b2_b767_6efa60c5894b_Class39 ( obj_54dc4e05_626a_4918_ae8a_523ae1115190 o )  ) ) ( type_3d0d6f16_9049_43b2_b767_6efa60c5894b_Class5 ( obj_54dc4e05_626a_4918_ae8a_523ae1115190 o )  ) )):named c16))
(assert (! (exists ((o Int)) (and (and ( type_3d0d6f16_9049_43b2_b767_6efa60c5894b_Class24 ( obj_54dc4e05_626a_4918_ae8a_523ae1115190 o )  )  ( type_3d0d6f16_9049_43b2_b767_6efa60c5894b_Class25 ( obj_54dc4e05_626a_4918_ae8a_523ae1115190 o )  ) ) ( type_3d0d6f16_9049_43b2_b767_6efa60c5894b_Class39 ( obj_54dc4e05_626a_4918_ae8a_523ae1115190 o )  ) )):named c17))
(assert (! (exists ((o Int)) (and ( type_3d0d6f16_9049_43b2_b767_6efa60c5894b_Class25 ( obj_54dc4e05_626a_4918_ae8a_523ae1115190 o )  )  ( type_3d0d6f16_9049_43b2_b767_6efa60c5894b_Class39 ( obj_54dc4e05_626a_4918_ae8a_523ae1115190 o )  ) )):named c18))
(assert (! (exists ((o Int)) ( type_3d0d6f16_9049_43b2_b767_6efa60c5894b_Class26 ( obj_54dc4e05_626a_4918_ae8a_523ae1115190 o )  ) ):named c19))
(assert (! (exists ((o Int)) ( type_3d0d6f16_9049_43b2_b767_6efa60c5894b_Class27 ( obj_54dc4e05_626a_4918_ae8a_523ae1115190 o )  ) ):named c20))
(assert (! (exists ((o Int)) (and (and (and (and (and (and (and ( type_3d0d6f16_9049_43b2_b767_6efa60c5894b_Class28 ( obj_54dc4e05_626a_4918_ae8a_523ae1115190 o )  )  ( type_3d0d6f16_9049_43b2_b767_6efa60c5894b_Class45 ( obj_54dc4e05_626a_4918_ae8a_523ae1115190 o )  ) ) ( type_3d0d6f16_9049_43b2_b767_6efa60c5894b_Class12 ( obj_54dc4e05_626a_4918_ae8a_523ae1115190 o )  ) ) ( type_3d0d6f16_9049_43b2_b767_6efa60c5894b_Class33 ( obj_54dc4e05_626a_4918_ae8a_523ae1115190 o )  ) ) ( type_3d0d6f16_9049_43b2_b767_6efa60c5894b_Class22 ( obj_54dc4e05_626a_4918_ae8a_523ae1115190 o )  ) ) ( type_3d0d6f16_9049_43b2_b767_6efa60c5894b_Class29 ( obj_54dc4e05_626a_4918_ae8a_523ae1115190 o )  ) ) ( type_3d0d6f16_9049_43b2_b767_6efa60c5894b_Class39 ( obj_54dc4e05_626a_4918_ae8a_523ae1115190 o )  ) ) ( type_3d0d6f16_9049_43b2_b767_6efa60c5894b_Class41 ( obj_54dc4e05_626a_4918_ae8a_523ae1115190 o )  ) )):named c21))
(assert (! (exists ((o Int)) (and (and (and (and (and (and ( type_3d0d6f16_9049_43b2_b767_6efa60c5894b_Class29 ( obj_54dc4e05_626a_4918_ae8a_523ae1115190 o )  )  ( type_3d0d6f16_9049_43b2_b767_6efa60c5894b_Class45 ( obj_54dc4e05_626a_4918_ae8a_523ae1115190 o )  ) ) ( type_3d0d6f16_9049_43b2_b767_6efa60c5894b_Class12 ( obj_54dc4e05_626a_4918_ae8a_523ae1115190 o )  ) ) ( type_3d0d6f16_9049_43b2_b767_6efa60c5894b_Class33 ( obj_54dc4e05_626a_4918_ae8a_523ae1115190 o )  ) ) ( type_3d0d6f16_9049_43b2_b767_6efa60c5894b_Class22 ( obj_54dc4e05_626a_4918_ae8a_523ae1115190 o )  ) ) ( type_3d0d6f16_9049_43b2_b767_6efa60c5894b_Class39 ( obj_54dc4e05_626a_4918_ae8a_523ae1115190 o )  ) ) ( type_3d0d6f16_9049_43b2_b767_6efa60c5894b_Class41 ( obj_54dc4e05_626a_4918_ae8a_523ae1115190 o )  ) )):named c22))
(assert (! (exists ((o Int)) (and (and (and ( type_3d0d6f16_9049_43b2_b767_6efa60c5894b_Class3 ( obj_54dc4e05_626a_4918_ae8a_523ae1115190 o )  )  ( type_3d0d6f16_9049_43b2_b767_6efa60c5894b_Class25 ( obj_54dc4e05_626a_4918_ae8a_523ae1115190 o )  ) ) ( type_3d0d6f16_9049_43b2_b767_6efa60c5894b_Class24 ( obj_54dc4e05_626a_4918_ae8a_523ae1115190 o )  ) ) ( type_3d0d6f16_9049_43b2_b767_6efa60c5894b_Class39 ( obj_54dc4e05_626a_4918_ae8a_523ae1115190 o )  ) )):named c23))
(assert (! (exists ((o Int)) (and ( type_3d0d6f16_9049_43b2_b767_6efa60c5894b_Class30 ( obj_54dc4e05_626a_4918_ae8a_523ae1115190 o )  )  ( type_3d0d6f16_9049_43b2_b767_6efa60c5894b_Class39 ( obj_54dc4e05_626a_4918_ae8a_523ae1115190 o )  ) )):named c24))
(assert (! (exists ((o Int)) (and (and (and (and (and ( type_3d0d6f16_9049_43b2_b767_6efa60c5894b_Class31 ( obj_54dc4e05_626a_4918_ae8a_523ae1115190 o )  )  ( type_3d0d6f16_9049_43b2_b767_6efa60c5894b_Class45 ( obj_54dc4e05_626a_4918_ae8a_523ae1115190 o )  ) ) ( type_3d0d6f16_9049_43b2_b767_6efa60c5894b_Class12 ( obj_54dc4e05_626a_4918_ae8a_523ae1115190 o )  ) ) ( type_3d0d6f16_9049_43b2_b767_6efa60c5894b_Class33 ( obj_54dc4e05_626a_4918_ae8a_523ae1115190 o )  ) ) ( type_3d0d6f16_9049_43b2_b767_6efa60c5894b_Class22 ( obj_54dc4e05_626a_4918_ae8a_523ae1115190 o )  ) ) ( type_3d0d6f16_9049_43b2_b767_6efa60c5894b_Class39 ( obj_54dc4e05_626a_4918_ae8a_523ae1115190 o )  ) )):named c25))
(assert (! (exists ((o Int)) ( type_3d0d6f16_9049_43b2_b767_6efa60c5894b_Class32 ( obj_54dc4e05_626a_4918_ae8a_523ae1115190 o )  ) ):named c26))
(assert (! (exists ((o Int)) (and (and ( type_3d0d6f16_9049_43b2_b767_6efa60c5894b_Class33 ( obj_54dc4e05_626a_4918_ae8a_523ae1115190 o )  )  ( type_3d0d6f16_9049_43b2_b767_6efa60c5894b_Class22 ( obj_54dc4e05_626a_4918_ae8a_523ae1115190 o )  ) ) ( type_3d0d6f16_9049_43b2_b767_6efa60c5894b_Class39 ( obj_54dc4e05_626a_4918_ae8a_523ae1115190 o )  ) )):named c27))
(assert (! (exists ((o Int)) (and (and (and ( type_3d0d6f16_9049_43b2_b767_6efa60c5894b_Class34 ( obj_54dc4e05_626a_4918_ae8a_523ae1115190 o )  )  ( type_3d0d6f16_9049_43b2_b767_6efa60c5894b_Class25 ( obj_54dc4e05_626a_4918_ae8a_523ae1115190 o )  ) ) ( type_3d0d6f16_9049_43b2_b767_6efa60c5894b_Class24 ( obj_54dc4e05_626a_4918_ae8a_523ae1115190 o )  ) ) ( type_3d0d6f16_9049_43b2_b767_6efa60c5894b_Class39 ( obj_54dc4e05_626a_4918_ae8a_523ae1115190 o )  ) )):named c28))
(assert (! (exists ((o Int)) (and (and ( type_3d0d6f16_9049_43b2_b767_6efa60c5894b_Class35 ( obj_54dc4e05_626a_4918_ae8a_523ae1115190 o )  )  ( type_3d0d6f16_9049_43b2_b767_6efa60c5894b_Class39 ( obj_54dc4e05_626a_4918_ae8a_523ae1115190 o )  ) ) ( type_3d0d6f16_9049_43b2_b767_6efa60c5894b_Class30 ( obj_54dc4e05_626a_4918_ae8a_523ae1115190 o )  ) )):named c29))
(assert (! (exists ((o Int)) ( type_3d0d6f16_9049_43b2_b767_6efa60c5894b_Class36 ( obj_54dc4e05_626a_4918_ae8a_523ae1115190 o )  ) ):named c30))
(assert (! (exists ((o Int)) ( type_3d0d6f16_9049_43b2_b767_6efa60c5894b_Class37 ( obj_54dc4e05_626a_4918_ae8a_523ae1115190 o )  ) ):named c31))
(assert (! (exists ((o Int)) ( type_3d0d6f16_9049_43b2_b767_6efa60c5894b_Class38 ( obj_54dc4e05_626a_4918_ae8a_523ae1115190 o )  ) ):named c32))
(assert (! (exists ((o Int)) ( type_3d0d6f16_9049_43b2_b767_6efa60c5894b_Class39 ( obj_54dc4e05_626a_4918_ae8a_523ae1115190 o )  ) ):named c33))
(assert (! (exists ((o Int)) ( type_3d0d6f16_9049_43b2_b767_6efa60c5894b_Class4 ( obj_54dc4e05_626a_4918_ae8a_523ae1115190 o )  ) ):named c34))
(assert (! (exists ((o Int)) (and (and (and (and (and (and (and (and (and ( type_3d0d6f16_9049_43b2_b767_6efa60c5894b_Class40 ( obj_54dc4e05_626a_4918_ae8a_523ae1115190 o )  )  ( type_3d0d6f16_9049_43b2_b767_6efa60c5894b_Class45 ( obj_54dc4e05_626a_4918_ae8a_523ae1115190 o )  ) ) ( type_3d0d6f16_9049_43b2_b767_6efa60c5894b_Class12 ( obj_54dc4e05_626a_4918_ae8a_523ae1115190 o )  ) ) ( type_3d0d6f16_9049_43b2_b767_6efa60c5894b_Class55 ( obj_54dc4e05_626a_4918_ae8a_523ae1115190 o )  ) ) ( type_3d0d6f16_9049_43b2_b767_6efa60c5894b_Class33 ( obj_54dc4e05_626a_4918_ae8a_523ae1115190 o )  ) ) ( type_3d0d6f16_9049_43b2_b767_6efa60c5894b_Class22 ( obj_54dc4e05_626a_4918_ae8a_523ae1115190 o )  ) ) ( type_3d0d6f16_9049_43b2_b767_6efa60c5894b_Class29 ( obj_54dc4e05_626a_4918_ae8a_523ae1115190 o )  ) ) ( type_3d0d6f16_9049_43b2_b767_6efa60c5894b_Class39 ( obj_54dc4e05_626a_4918_ae8a_523ae1115190 o )  ) ) ( type_3d0d6f16_9049_43b2_b767_6efa60c5894b_Class50 ( obj_54dc4e05_626a_4918_ae8a_523ae1115190 o )  ) ) ( type_3d0d6f16_9049_43b2_b767_6efa60c5894b_Class41 ( obj_54dc4e05_626a_4918_ae8a_523ae1115190 o )  ) )):named c35))
(assert (! (exists ((o Int)) (and (and (and (and (and ( type_3d0d6f16_9049_43b2_b767_6efa60c5894b_Class41 ( obj_54dc4e05_626a_4918_ae8a_523ae1115190 o )  )  ( type_3d0d6f16_9049_43b2_b767_6efa60c5894b_Class45 ( obj_54dc4e05_626a_4918_ae8a_523ae1115190 o )  ) ) ( type_3d0d6f16_9049_43b2_b767_6efa60c5894b_Class12 ( obj_54dc4e05_626a_4918_ae8a_523ae1115190 o )  ) ) ( type_3d0d6f16_9049_43b2_b767_6efa60c5894b_Class33 ( obj_54dc4e05_626a_4918_ae8a_523ae1115190 o )  ) ) ( type_3d0d6f16_9049_43b2_b767_6efa60c5894b_Class22 ( obj_54dc4e05_626a_4918_ae8a_523ae1115190 o )  ) ) ( type_3d0d6f16_9049_43b2_b767_6efa60c5894b_Class39 ( obj_54dc4e05_626a_4918_ae8a_523ae1115190 o )  ) )):named c36))
(assert (! (exists ((o Int)) (and ( type_3d0d6f16_9049_43b2_b767_6efa60c5894b_Class42 ( obj_54dc4e05_626a_4918_ae8a_523ae1115190 o )  )  ( type_3d0d6f16_9049_43b2_b767_6efa60c5894b_Class39 ( obj_54dc4e05_626a_4918_ae8a_523ae1115190 o )  ) )):named c37))
(assert (! (exists ((o Int)) ( type_3d0d6f16_9049_43b2_b767_6efa60c5894b_Class43 ( obj_54dc4e05_626a_4918_ae8a_523ae1115190 o )  ) ):named c38))
(assert (! (exists ((o Int)) (and (and (and (and (and (and (and ( type_3d0d6f16_9049_43b2_b767_6efa60c5894b_Class44 ( obj_54dc4e05_626a_4918_ae8a_523ae1115190 o )  )  ( type_3d0d6f16_9049_43b2_b767_6efa60c5894b_Class45 ( obj_54dc4e05_626a_4918_ae8a_523ae1115190 o )  ) ) ( type_3d0d6f16_9049_43b2_b767_6efa60c5894b_Class12 ( obj_54dc4e05_626a_4918_ae8a_523ae1115190 o )  ) ) ( type_3d0d6f16_9049_43b2_b767_6efa60c5894b_Class33 ( obj_54dc4e05_626a_4918_ae8a_523ae1115190 o )  ) ) ( type_3d0d6f16_9049_43b2_b767_6efa60c5894b_Class22 ( obj_54dc4e05_626a_4918_ae8a_523ae1115190 o )  ) ) ( type_3d0d6f16_9049_43b2_b767_6efa60c5894b_Class29 ( obj_54dc4e05_626a_4918_ae8a_523ae1115190 o )  ) ) ( type_3d0d6f16_9049_43b2_b767_6efa60c5894b_Class39 ( obj_54dc4e05_626a_4918_ae8a_523ae1115190 o )  ) ) ( type_3d0d6f16_9049_43b2_b767_6efa60c5894b_Class41 ( obj_54dc4e05_626a_4918_ae8a_523ae1115190 o )  ) )):named c39))
(assert (! (exists ((o Int)) (and (and (and (and ( type_3d0d6f16_9049_43b2_b767_6efa60c5894b_Class45 ( obj_54dc4e05_626a_4918_ae8a_523ae1115190 o )  )  ( type_3d0d6f16_9049_43b2_b767_6efa60c5894b_Class12 ( obj_54dc4e05_626a_4918_ae8a_523ae1115190 o )  ) ) ( type_3d0d6f16_9049_43b2_b767_6efa60c5894b_Class33 ( obj_54dc4e05_626a_4918_ae8a_523ae1115190 o )  ) ) ( type_3d0d6f16_9049_43b2_b767_6efa60c5894b_Class22 ( obj_54dc4e05_626a_4918_ae8a_523ae1115190 o )  ) ) ( type_3d0d6f16_9049_43b2_b767_6efa60c5894b_Class39 ( obj_54dc4e05_626a_4918_ae8a_523ae1115190 o )  ) )):named c40))
(assert (! (exists ((o Int)) (and (and ( type_3d0d6f16_9049_43b2_b767_6efa60c5894b_Class46 ( obj_54dc4e05_626a_4918_ae8a_523ae1115190 o )  )  ( type_3d0d6f16_9049_43b2_b767_6efa60c5894b_Class39 ( obj_54dc4e05_626a_4918_ae8a_523ae1115190 o )  ) ) ( type_3d0d6f16_9049_43b2_b767_6efa60c5894b_Class5 ( obj_54dc4e05_626a_4918_ae8a_523ae1115190 o )  ) )):named c41))
(assert (! (exists ((o Int)) ( type_3d0d6f16_9049_43b2_b767_6efa60c5894b_Class47 ( obj_54dc4e05_626a_4918_ae8a_523ae1115190 o )  ) ):named c42))
(assert (! (exists ((o Int)) (and (and (and (and (and (and (and (and (and ( type_3d0d6f16_9049_43b2_b767_6efa60c5894b_Class48 ( obj_54dc4e05_626a_4918_ae8a_523ae1115190 o )  )  ( type_3d0d6f16_9049_43b2_b767_6efa60c5894b_Class45 ( obj_54dc4e05_626a_4918_ae8a_523ae1115190 o )  ) ) ( type_3d0d6f16_9049_43b2_b767_6efa60c5894b_Class12 ( obj_54dc4e05_626a_4918_ae8a_523ae1115190 o )  ) ) ( type_3d0d6f16_9049_43b2_b767_6efa60c5894b_Class55 ( obj_54dc4e05_626a_4918_ae8a_523ae1115190 o )  ) ) ( type_3d0d6f16_9049_43b2_b767_6efa60c5894b_Class33 ( obj_54dc4e05_626a_4918_ae8a_523ae1115190 o )  ) ) ( type_3d0d6f16_9049_43b2_b767_6efa60c5894b_Class22 ( obj_54dc4e05_626a_4918_ae8a_523ae1115190 o )  ) ) ( type_3d0d6f16_9049_43b2_b767_6efa60c5894b_Class29 ( obj_54dc4e05_626a_4918_ae8a_523ae1115190 o )  ) ) ( type_3d0d6f16_9049_43b2_b767_6efa60c5894b_Class39 ( obj_54dc4e05_626a_4918_ae8a_523ae1115190 o )  ) ) ( type_3d0d6f16_9049_43b2_b767_6efa60c5894b_Class50 ( obj_54dc4e05_626a_4918_ae8a_523ae1115190 o )  ) ) ( type_3d0d6f16_9049_43b2_b767_6efa60c5894b_Class41 ( obj_54dc4e05_626a_4918_ae8a_523ae1115190 o )  ) )):named c43))
(assert (! (exists ((o Int)) (and (and (and (and (and (and (and (and (and ( type_3d0d6f16_9049_43b2_b767_6efa60c5894b_Class49 ( obj_54dc4e05_626a_4918_ae8a_523ae1115190 o )  )  ( type_3d0d6f16_9049_43b2_b767_6efa60c5894b_Class45 ( obj_54dc4e05_626a_4918_ae8a_523ae1115190 o )  ) ) ( type_3d0d6f16_9049_43b2_b767_6efa60c5894b_Class12 ( obj_54dc4e05_626a_4918_ae8a_523ae1115190 o )  ) ) ( type_3d0d6f16_9049_43b2_b767_6efa60c5894b_Class55 ( obj_54dc4e05_626a_4918_ae8a_523ae1115190 o )  ) ) ( type_3d0d6f16_9049_43b2_b767_6efa60c5894b_Class33 ( obj_54dc4e05_626a_4918_ae8a_523ae1115190 o )  ) ) ( type_3d0d6f16_9049_43b2_b767_6efa60c5894b_Class22 ( obj_54dc4e05_626a_4918_ae8a_523ae1115190 o )  ) ) ( type_3d0d6f16_9049_43b2_b767_6efa60c5894b_Class29 ( obj_54dc4e05_626a_4918_ae8a_523ae1115190 o )  ) ) ( type_3d0d6f16_9049_43b2_b767_6efa60c5894b_Class39 ( obj_54dc4e05_626a_4918_ae8a_523ae1115190 o )  ) ) ( type_3d0d6f16_9049_43b2_b767_6efa60c5894b_Class50 ( obj_54dc4e05_626a_4918_ae8a_523ae1115190 o )  ) ) ( type_3d0d6f16_9049_43b2_b767_6efa60c5894b_Class41 ( obj_54dc4e05_626a_4918_ae8a_523ae1115190 o )  ) )):named c44))
(assert (! (exists ((o Int)) (and ( type_3d0d6f16_9049_43b2_b767_6efa60c5894b_Class5 ( obj_54dc4e05_626a_4918_ae8a_523ae1115190 o )  )  ( type_3d0d6f16_9049_43b2_b767_6efa60c5894b_Class39 ( obj_54dc4e05_626a_4918_ae8a_523ae1115190 o )  ) )):named c45))
(assert (! (exists ((o Int)) (and (and (and (and (and (and (and (and ( type_3d0d6f16_9049_43b2_b767_6efa60c5894b_Class50 ( obj_54dc4e05_626a_4918_ae8a_523ae1115190 o )  )  ( type_3d0d6f16_9049_43b2_b767_6efa60c5894b_Class45 ( obj_54dc4e05_626a_4918_ae8a_523ae1115190 o )  ) ) ( type_3d0d6f16_9049_43b2_b767_6efa60c5894b_Class12 ( obj_54dc4e05_626a_4918_ae8a_523ae1115190 o )  ) ) ( type_3d0d6f16_9049_43b2_b767_6efa60c5894b_Class55 ( obj_54dc4e05_626a_4918_ae8a_523ae1115190 o )  ) ) ( type_3d0d6f16_9049_43b2_b767_6efa60c5894b_Class33 ( obj_54dc4e05_626a_4918_ae8a_523ae1115190 o )  ) ) ( type_3d0d6f16_9049_43b2_b767_6efa60c5894b_Class22 ( obj_54dc4e05_626a_4918_ae8a_523ae1115190 o )  ) ) ( type_3d0d6f16_9049_43b2_b767_6efa60c5894b_Class29 ( obj_54dc4e05_626a_4918_ae8a_523ae1115190 o )  ) ) ( type_3d0d6f16_9049_43b2_b767_6efa60c5894b_Class39 ( obj_54dc4e05_626a_4918_ae8a_523ae1115190 o )  ) ) ( type_3d0d6f16_9049_43b2_b767_6efa60c5894b_Class41 ( obj_54dc4e05_626a_4918_ae8a_523ae1115190 o )  ) )):named c46))
(assert (! (exists ((o Int)) (and (and (and (and (and (and ( type_3d0d6f16_9049_43b2_b767_6efa60c5894b_Class51 ( obj_54dc4e05_626a_4918_ae8a_523ae1115190 o )  )  ( type_3d0d6f16_9049_43b2_b767_6efa60c5894b_Class45 ( obj_54dc4e05_626a_4918_ae8a_523ae1115190 o )  ) ) ( type_3d0d6f16_9049_43b2_b767_6efa60c5894b_Class12 ( obj_54dc4e05_626a_4918_ae8a_523ae1115190 o )  ) ) ( type_3d0d6f16_9049_43b2_b767_6efa60c5894b_Class33 ( obj_54dc4e05_626a_4918_ae8a_523ae1115190 o )  ) ) ( type_3d0d6f16_9049_43b2_b767_6efa60c5894b_Class22 ( obj_54dc4e05_626a_4918_ae8a_523ae1115190 o )  ) ) ( type_3d0d6f16_9049_43b2_b767_6efa60c5894b_Class16 ( obj_54dc4e05_626a_4918_ae8a_523ae1115190 o )  ) ) ( type_3d0d6f16_9049_43b2_b767_6efa60c5894b_Class39 ( obj_54dc4e05_626a_4918_ae8a_523ae1115190 o )  ) )):named c47))
(assert (! (exists ((o Int)) (and (and (and (and (and ( type_3d0d6f16_9049_43b2_b767_6efa60c5894b_Class52 ( obj_54dc4e05_626a_4918_ae8a_523ae1115190 o )  )  ( type_3d0d6f16_9049_43b2_b767_6efa60c5894b_Class45 ( obj_54dc4e05_626a_4918_ae8a_523ae1115190 o )  ) ) ( type_3d0d6f16_9049_43b2_b767_6efa60c5894b_Class12 ( obj_54dc4e05_626a_4918_ae8a_523ae1115190 o )  ) ) ( type_3d0d6f16_9049_43b2_b767_6efa60c5894b_Class33 ( obj_54dc4e05_626a_4918_ae8a_523ae1115190 o )  ) ) ( type_3d0d6f16_9049_43b2_b767_6efa60c5894b_Class22 ( obj_54dc4e05_626a_4918_ae8a_523ae1115190 o )  ) ) ( type_3d0d6f16_9049_43b2_b767_6efa60c5894b_Class39 ( obj_54dc4e05_626a_4918_ae8a_523ae1115190 o )  ) )):named c48))
(assert (! (exists ((o Int)) ( type_3d0d6f16_9049_43b2_b767_6efa60c5894b_Class53 ( obj_54dc4e05_626a_4918_ae8a_523ae1115190 o )  ) ):named c49))
(assert (! (exists ((o Int)) ( type_3d0d6f16_9049_43b2_b767_6efa60c5894b_Class54 ( obj_54dc4e05_626a_4918_ae8a_523ae1115190 o )  ) ):named c50))
(assert (! (exists ((o Int)) (and (and (and (and (and (and (and ( type_3d0d6f16_9049_43b2_b767_6efa60c5894b_Class55 ( obj_54dc4e05_626a_4918_ae8a_523ae1115190 o )  )  ( type_3d0d6f16_9049_43b2_b767_6efa60c5894b_Class45 ( obj_54dc4e05_626a_4918_ae8a_523ae1115190 o )  ) ) ( type_3d0d6f16_9049_43b2_b767_6efa60c5894b_Class12 ( obj_54dc4e05_626a_4918_ae8a_523ae1115190 o )  ) ) ( type_3d0d6f16_9049_43b2_b767_6efa60c5894b_Class33 ( obj_54dc4e05_626a_4918_ae8a_523ae1115190 o )  ) ) ( type_3d0d6f16_9049_43b2_b767_6efa60c5894b_Class22 ( obj_54dc4e05_626a_4918_ae8a_523ae1115190 o )  ) ) ( type_3d0d6f16_9049_43b2_b767_6efa60c5894b_Class29 ( obj_54dc4e05_626a_4918_ae8a_523ae1115190 o )  ) ) ( type_3d0d6f16_9049_43b2_b767_6efa60c5894b_Class39 ( obj_54dc4e05_626a_4918_ae8a_523ae1115190 o )  ) ) ( type_3d0d6f16_9049_43b2_b767_6efa60c5894b_Class41 ( obj_54dc4e05_626a_4918_ae8a_523ae1115190 o )  ) )):named c51))
(assert (! (exists ((o Int)) ( type_3d0d6f16_9049_43b2_b767_6efa60c5894b_Class6 ( obj_54dc4e05_626a_4918_ae8a_523ae1115190 o )  ) ):named c52))
(assert (! (exists ((o Int)) (and (and (and (and (and (and (and (and (and ( type_3d0d6f16_9049_43b2_b767_6efa60c5894b_Class7 ( obj_54dc4e05_626a_4918_ae8a_523ae1115190 o )  )  ( type_3d0d6f16_9049_43b2_b767_6efa60c5894b_Class45 ( obj_54dc4e05_626a_4918_ae8a_523ae1115190 o )  ) ) ( type_3d0d6f16_9049_43b2_b767_6efa60c5894b_Class12 ( obj_54dc4e05_626a_4918_ae8a_523ae1115190 o )  ) ) ( type_3d0d6f16_9049_43b2_b767_6efa60c5894b_Class55 ( obj_54dc4e05_626a_4918_ae8a_523ae1115190 o )  ) ) ( type_3d0d6f16_9049_43b2_b767_6efa60c5894b_Class33 ( obj_54dc4e05_626a_4918_ae8a_523ae1115190 o )  ) ) ( type_3d0d6f16_9049_43b2_b767_6efa60c5894b_Class22 ( obj_54dc4e05_626a_4918_ae8a_523ae1115190 o )  ) ) ( type_3d0d6f16_9049_43b2_b767_6efa60c5894b_Class29 ( obj_54dc4e05_626a_4918_ae8a_523ae1115190 o )  ) ) ( type_3d0d6f16_9049_43b2_b767_6efa60c5894b_Class39 ( obj_54dc4e05_626a_4918_ae8a_523ae1115190 o )  ) ) ( type_3d0d6f16_9049_43b2_b767_6efa60c5894b_Class50 ( obj_54dc4e05_626a_4918_ae8a_523ae1115190 o )  ) ) ( type_3d0d6f16_9049_43b2_b767_6efa60c5894b_Class41 ( obj_54dc4e05_626a_4918_ae8a_523ae1115190 o )  ) )):named c53))
(assert (! (exists ((o Int)) (and ( type_3d0d6f16_9049_43b2_b767_6efa60c5894b_Class8 ( obj_54dc4e05_626a_4918_ae8a_523ae1115190 o )  )  ( type_3d0d6f16_9049_43b2_b767_6efa60c5894b_Class39 ( obj_54dc4e05_626a_4918_ae8a_523ae1115190 o )  ) )):named c54))
(assert (! (exists ((o Int)) ( type_3d0d6f16_9049_43b2_b767_6efa60c5894b_Class9 ( obj_54dc4e05_626a_4918_ae8a_523ae1115190 o )  ) ):named c55))

 ;end of formula 